2507 100
 0 1
 0 2
 0 4
 0 8
 0 9
 0 10
 0 13
 0 14
 0 18
 0 19
 0 23
 0 24
 0 26
 0 28
 0 29
 0 31
 0 35
 0 36
 0 40
 0 44
 0 45
 0 47
 0 48
 0 49
 0 50
 0 57
 0 63
 0 65
 0 66
 0 67
 0 68
 0 70
 0 72
 0 74
 0 78
 0 82
 0 83
 0 94
 0 95
 0 96
 0 98
 0 99
 1 2
 1 7
 1 8
 1 9
 1 10
 1 13
 1 18
 1 23
 1 26
 1 28
 1 30
 1 31
 1 33
 1 35
 1 37
 1 40
 1 43
 1 45
 1 46
 1 47
 1 50
 1 52
 1 53
 1 56
 1 58
 1 59
 1 62
 1 63
 1 65
 1 66
 1 71
 1 73
 1 74
 1 75
 1 77
 1 80
 1 81
 1 82
 1 84
 1 87
 1 88
 1 89
 1 90
 1 93
 1 94
 1 98
 1 99
 2 4
 2 6
 2 8
 2 9
 2 10
 2 12
 2 14
 2 16
 2 18
 2 20
 2 21
 2 23
 2 28
 2 30
 2 31
 2 33
 2 34
 2 35
 2 36
 2 39
 2 42
 2 43
 2 44
 2 50
 2 51
 2 56
 2 58
 2 63
 2 65
 2 67
 2 68
 2 69
 2 70
 2 71
 2 72
 2 74
 2 75
 2 76
 2 77
 2 79
 2 81
 2 83
 2 84
 2 88
 2 89
 2 92
 2 94
 2 95
 2 96
 2 98
 3 4
 3 5
 3 8
 3 11
 3 12
 3 22
 3 28
 3 31
 3 32
 3 33
 3 34
 3 37
 3 39
 3 43
 3 47
 3 49
 3 51
 3 57
 3 58
 3 62
 3 63
 3 64
 3 68
 3 70
 3 71
 3 73
 3 75
 3 77
 3 79
 3 80
 3 81
 3 82
 3 86
 3 89
 3 91
 3 94
 3 95
 3 98
 4 6
 4 7
 4 8
 4 9
 4 11
 4 13
 4 14
 4 18
 4 19
 4 23
 4 24
 4 25
 4 26
 4 27
 4 28
 4 29
 4 32
 4 35
 4 36
 4 39
 4 40
 4 41
 4 43
 4 46
 4 47
 4 51
 4 52
 4 55
 4 59
 4 60
 4 61
 4 64
 4 66
 4 67
 4 68
 4 70
 4 72
 4 74
 4 75
 4 78
 4 80
 4 81
 4 82
 4 87
 4 89
 4 92
 4 93
 4 94
 4 95
 4 96
 4 99
 5 6
 5 10
 5 12
 5 14
 5 15
 5 16
 5 18
 5 20
 5 22
 5 23
 5 26
 5 28
 5 29
 5 32
 5 36
 5 37
 5 40
 5 41
 5 42
 5 44
 5 47
 5 50
 5 51
 5 53
 5 56
 5 57
 5 58
 5 60
 5 61
 5 62
 5 65
 5 67
 5 68
 5 73
 5 74
 5 76
 5 78
 5 81
 5 82
 5 87
 5 88
 5 90
 5 92
 5 94
 5 95
 5 97
 6 8
 6 10
 6 12
 6 13
 6 14
 6 15
 6 16
 6 18
 6 19
 6 20
 6 23
 6 26
 6 27
 6 29
 6 31
 6 32
 6 35
 6 38
 6 39
 6 41
 6 44
 6 45
 6 47
 6 49
 6 53
 6 54
 6 55
 6 56
 6 57
 6 58
 6 59
 6 60
 6 66
 6 67
 6 68
 6 69
 6 70
 6 72
 6 74
 6 76
 6 78
 6 80
 6 86
 6 87
 6 90
 6 92
 6 93
 6 94
 6 96
 6 97
 6 98
 6 99
 7 8
 7 10
 7 12
 7 13
 7 14
 7 15
 7 16
 7 21
 7 24
 7 26
 7 27
 7 28
 7 29
 7 33
 7 34
 7 35
 7 36
 7 40
 7 43
 7 44
 7 48
 7 51
 7 52
 7 53
 7 54
 7 55
 7 58
 7 60
 7 62
 7 64
 7 65
 7 67
 7 69
 7 74
 7 77
 7 78
 7 79
 7 81
 7 82
 7 85
 7 86
 7 87
 7 88
 7 89
 7 91
 7 92
 7 93
 7 94
 7 95
 7 96
 8 9
 8 11
 8 14
 8 18
 8 23
 8 26
 8 27
 8 28
 8 29
 8 30
 8 32
 8 34
 8 35
 8 36
 8 39
 8 40
 8 41
 8 42
 8 43
 8 44
 8 45
 8 46
 8 48
 8 49
 8 50
 8 51
 8 52
 8 54
 8 55
 8 58
 8 59
 8 60
 8 62
 8 63
 8 64
 8 65
 8 68
 8 70
 8 71
 8 72
 8 76
 8 79
 8 82
 8 84
 8 87
 8 91
 8 92
 8 93
 8 95
 8 96
 8 98
 8 99
 9 11
 9 13
 9 15
 9 16
 9 17
 9 19
 9 21
 9 25
 9 27
 9 28
 9 30
 9 31
 9 32
 9 38
 9 40
 9 42
 9 44
 9 48
 9 52
 9 55
 9 57
 9 59
 9 60
 9 61
 9 62
 9 63
 9 64
 9 66
 9 67
 9 68
 9 72
 9 74
 9 75
 9 77
 9 82
 9 84
 9 85
 9 87
 9 90
 9 91
 9 92
 9 95
 9 96
 10 14
 10 15
 10 16
 10 17
 10 20
 10 22
 10 25
 10 29
 10 30
 10 35
 10 36
 10 38
 10 39
 10 41
 10 42
 10 43
 10 45
 10 46
 10 48
 10 49
 10 50
 10 57
 10 58
 10 60
 10 61
 10 62
 10 63
 10 64
 10 65
 10 67
 10 69
 10 72
 10 74
 10 75
 10 76
 10 77
 10 78
 10 80
 10 83
 10 85
 10 86
 10 87
 10 88
 10 89
 10 91
 10 92
 10 94
 10 95
 10 97
 11 12
 11 14
 11 16
 11 19
 11 21
 11 23
 11 25
 11 29
 11 30
 11 31
 11 32
 11 34
 11 36
 11 38
 11 39
 11 42
 11 44
 11 46
 11 47
 11 49
 11 50
 11 53
 11 54
 11 55
 11 57
 11 59
 11 60
 11 61
 11 63
 11 67
 11 68
 11 72
 11 74
 11 75
 11 77
 11 78
 11 81
 11 82
 11 84
 11 85
 11 86
 11 87
 11 89
 11 91
 11 93
 11 98
 12 13
 12 14
 12 15
 12 16
 12 19
 12 21
 12 23
 12 24
 12 25
 12 26
 12 30
 12 33
 12 34
 12 35
 12 36
 12 38
 12 40
 12 42
 12 46
 12 47
 12 48
 12 50
 12 51
 12 52
 12 54
 12 58
 12 59
 12 60
 12 64
 12 67
 12 69
 12 70
 12 72
 12 74
 12 76
 12 77
 12 79
 12 80
 12 82
 12 84
 12 88
 12 89
 12 91
 12 93
 12 94
 12 96
 12 97
 12 98
 12 99
 13 15
 13 17
 13 18
 13 19
 13 20
 13 23
 13 28
 13 31
 13 33
 13 34
 13 35
 13 37
 13 38
 13 39
 13 40
 13 41
 13 42
 13 43
 13 44
 13 46
 13 47
 13 48
 13 49
 13 51
 13 52
 13 55
 13 56
 13 61
 13 63
 13 64
 13 65
 13 66
 13 72
 13 73
 13 74
 13 79
 13 83
 13 84
 13 85
 13 90
 13 91
 13 94
 13 95
 13 97
 13 98
 13 99
 14 15
 14 16
 14 17
 14 21
 14 22
 14 23
 14 25
 14 28
 14 31
 14 32
 14 33
 14 36
 14 40
 14 41
 14 44
 14 45
 14 46
 14 47
 14 49
 14 50
 14 51
 14 52
 14 54
 14 55
 14 58
 14 59
 14 61
 14 63
 14 64
 14 65
 14 66
 14 67
 14 69
 14 70
 14 71
 14 74
 14 75
 14 80
 14 84
 14 86
 14 87
 14 88
 14 91
 14 92
 14 94
 14 95
 14 96
 14 98
 14 99
 15 16
 15 17
 15 18
 15 20
 15 23
 15 24
 15 26
 15 27
 15 29
 15 32
 15 37
 15 39
 15 40
 15 41
 15 43
 15 47
 15 48
 15 50
 15 55
 15 57
 15 58
 15 60
 15 62
 15 64
 15 66
 15 67
 15 68
 15 69
 15 70
 15 71
 15 74
 15 75
 15 76
 15 77
 15 78
 15 80
 15 83
 15 85
 15 87
 15 88
 15 90
 15 91
 15 95
 15 98
 16 17
 16 18
 16 20
 16 21
 16 22
 16 23
 16 27
 16 29
 16 30
 16 31
 16 32
 16 33
 16 34
 16 35
 16 38
 16 39
 16 41
 16 42
 16 43
 16 44
 16 47
 16 50
 16 52
 16 55
 16 60
 16 66
 16 67
 16 68
 16 72
 16 74
 16 75
 16 79
 16 80
 16 81
 16 83
 16 85
 16 86
 16 89
 16 90
 16 92
 16 93
 16 94
 16 95
 16 96
 16 97
 16 99
 17 18
 17 19
 17 20
 17 21
 17 22
 17 23
 17 24
 17 25
 17 26
 17 27
 17 29
 17 30
 17 31
 17 32
 17 33
 17 34
 17 37
 17 41
 17 42
 17 43
 17 44
 17 49
 17 51
 17 52
 17 53
 17 58
 17 59
 17 61
 17 62
 17 64
 17 69
 17 73
 17 79
 17 80
 17 84
 17 85
 17 86
 17 87
 17 88
 17 89
 17 90
 17 95
 17 96
 17 97
 17 98
 17 99
 18 20
 18 21
 18 26
 18 27
 18 31
 18 32
 18 33
 18 34
 18 37
 18 43
 18 44
 18 46
 18 49
 18 50
 18 55
 18 56
 18 57
 18 58
 18 59
 18 61
 18 62
 18 66
 18 67
 18 70
 18 71
 18 72
 18 73
 18 75
 18 78
 18 79
 18 80
 18 81
 18 82
 18 84
 18 87
 18 89
 18 92
 18 95
 18 98
 18 99
 19 22
 19 23
 19 24
 19 25
 19 26
 19 28
 19 30
 19 31
 19 33
 19 36
 19 39
 19 41
 19 43
 19 45
 19 47
 19 48
 19 55
 19 56
 19 57
 19 62
 19 63
 19 68
 19 70
 19 72
 19 73
 19 74
 19 77
 19 79
 19 82
 19 85
 19 87
 19 88
 19 89
 19 92
 19 94
 19 95
 19 98
 19 99
 20 23
 20 26
 20 27
 20 28
 20 29
 20 30
 20 35
 20 36
 20 41
 20 42
 20 43
 20 44
 20 45
 20 46
 20 48
 20 52
 20 54
 20 55
 20 56
 20 57
 20 58
 20 59
 20 60
 20 63
 20 65
 20 66
 20 67
 20 68
 20 69
 20 70
 20 71
 20 73
 20 75
 20 76
 20 77
 20 78
 20 79
 20 80
 20 81
 20 82
 20 84
 20 86
 20 87
 20 88
 20 89
 20 90
 20 93
 20 94
 20 95
 20 99
 21 26
 21 30
 21 31
 21 34
 21 35
 21 37
 21 44
 21 45
 21 46
 21 47
 21 48
 21 49
 21 51
 21 52
 21 55
 21 57
 21 59
 21 60
 21 66
 21 67
 21 68
 21 72
 21 74
 21 75
 21 79
 21 80
 21 82
 21 86
 21 87
 21 88
 21 89
 21 91
 21 92
 21 93
 21 95
 21 97
 21 98
 22 25
 22 26
 22 31
 22 32
 22 33
 22 34
 22 35
 22 36
 22 37
 22 40
 22 43
 22 44
 22 45
 22 47
 22 48
 22 49
 22 51
 22 53
 22 54
 22 55
 22 56
 22 59
 22 63
 22 64
 22 65
 22 67
 22 68
 22 69
 22 71
 22 74
 22 76
 22 77
 22 79
 22 82
 22 83
 22 85
 22 87
 22 88
 22 89
 22 92
 22 93
 22 95
 22 96
 22 97
 22 98
 22 99
 23 24
 23 25
 23 26
 23 27
 23 30
 23 31
 23 34
 23 37
 23 38
 23 40
 23 41
 23 45
 23 46
 23 49
 23 50
 23 51
 23 54
 23 55
 23 57
 23 58
 23 60
 23 61
 23 63
 23 65
 23 68
 23 72
 23 76
 23 77
 23 80
 23 85
 23 87
 23 88
 23 90
 23 93
 23 97
 23 99
 24 26
 24 30
 24 31
 24 35
 24 38
 24 39
 24 40
 24 42
 24 43
 24 44
 24 46
 24 47
 24 48
 24 49
 24 52
 24 56
 24 57
 24 59
 24 60
 24 61
 24 62
 24 63
 24 64
 24 67
 24 68
 24 69
 24 71
 24 72
 24 73
 24 75
 24 76
 24 78
 24 79
 24 80
 24 81
 24 83
 24 85
 24 87
 24 90
 24 91
 24 92
 24 93
 24 96
 25 26
 25 33
 25 34
 25 38
 25 39
 25 40
 25 41
 25 44
 25 46
 25 47
 25 49
 25 50
 25 51
 25 53
 25 54
 25 55
 25 59
 25 60
 25 64
 25 65
 25 66
 25 67
 25 69
 25 70
 25 71
 25 72
 25 73
 25 75
 25 76
 25 78
 25 79
 25 80
 25 81
 25 82
 25 85
 25 87
 25 88
 25 89
 25 90
 25 91
 25 92
 25 93
 25 96
 25 97
 25 99
 26 29
 26 30
 26 31
 26 32
 26 33
 26 37
 26 39
 26 43
 26 49
 26 53
 26 54
 26 59
 26 61
 26 63
 26 64
 26 66
 26 69
 26 71
 26 73
 26 74
 26 75
 26 77
 26 83
 26 84
 26 87
 26 88
 26 91
 26 93
 26 94
 27 30
 27 32
 27 34
 27 40
 27 41
 27 42
 27 44
 27 45
 27 47
 27 48
 27 49
 27 50
 27 55
 27 56
 27 58
 27 59
 27 60
 27 64
 27 66
 27 68
 27 69
 27 70
 27 73
 27 74
 27 76
 27 77
 27 80
 27 81
 27 82
 27 84
 27 86
 27 87
 27 89
 27 94
 27 95
 27 97
 28 31
 28 34
 28 35
 28 36
 28 37
 28 39
 28 40
 28 42
 28 43
 28 45
 28 46
 28 47
 28 48
 28 49
 28 50
 28 52
 28 58
 28 59
 28 63
 28 65
 28 67
 28 68
 28 70
 28 71
 28 73
 28 76
 28 77
 28 78
 28 83
 28 85
 28 86
 28 87
 28 88
 28 89
 28 90
 28 94
 28 97
 28 99
 29 32
 29 33
 29 38
 29 39
 29 40
 29 42
 29 43
 29 44
 29 47
 29 49
 29 51
 29 52
 29 53
 29 54
 29 57
 29 59
 29 60
 29 62
 29 66
 29 69
 29 73
 29 77
 29 82
 29 83
 29 85
 29 88
 29 89
 29 90
 29 92
 29 93
 29 95
 29 96
 29 99
 30 31
 30 32
 30 33
 30 35
 30 36
 30 39
 30 40
 30 41
 30 44
 30 45
 30 52
 30 55
 30 58
 30 62
 30 63
 30 64
 30 66
 30 67
 30 69
 30 70
 30 71
 30 72
 30 73
 30 74
 30 75
 30 78
 30 79
 30 81
 30 91
 30 92
 30 97
 30 99
 31 32
 31 33
 31 34
 31 37
 31 38
 31 39
 31 41
 31 42
 31 43
 31 44
 31 45
 31 48
 31 49
 31 50
 31 55
 31 56
 31 57
 31 58
 31 59
 31 62
 31 63
 31 67
 31 68
 31 69
 31 72
 31 75
 31 80
 31 87
 31 88
 31 89
 31 90
 31 92
 31 97
 31 98
 31 99
 32 34
 32 35
 32 36
 32 44
 32 45
 32 46
 32 47
 32 48
 32 51
 32 52
 32 64
 32 67
 32 68
 32 72
 32 77
 32 79
 32 84
 32 85
 32 86
 32 90
 32 91
 32 93
 32 96
 32 97
 32 99
 33 36
 33 38
 33 39
 33 41
 33 43
 33 44
 33 45
 33 46
 33 47
 33 48
 33 51
 33 53
 33 54
 33 60
 33 62
 33 64
 33 65
 33 66
 33 67
 33 68
 33 69
 33 70
 33 72
 33 75
 33 76
 33 77
 33 78
 33 79
 33 81
 33 82
 33 84
 33 85
 33 86
 33 90
 33 93
 33 94
 33 95
 33 96
 33 97
 34 35
 34 37
 34 40
 34 41
 34 42
 34 43
 34 46
 34 48
 34 49
 34 50
 34 52
 34 53
 34 54
 34 55
 34 57
 34 59
 34 60
 34 61
 34 62
 34 63
 34 68
 34 69
 34 73
 34 75
 34 76
 34 78
 34 80
 34 82
 34 84
 34 87
 34 90
 34 91
 34 92
 34 94
 34 98
 35 38
 35 40
 35 41
 35 43
 35 44
 35 46
 35 48
 35 53
 35 54
 35 57
 35 59
 35 60
 35 61
 35 64
 35 67
 35 69
 35 70
 35 71
 35 72
 35 73
 35 78
 35 79
 35 80
 35 83
 35 86
 35 87
 35 88
 35 90
 35 91
 35 93
 35 94
 35 96
 35 97
 35 98
 36 41
 36 45
 36 46
 36 48
 36 49
 36 51
 36 52
 36 53
 36 54
 36 57
 36 58
 36 60
 36 63
 36 68
 36 69
 36 72
 36 76
 36 77
 36 82
 36 83
 36 85
 36 90
 36 91
 36 97
 37 39
 37 41
 37 42
 37 44
 37 49
 37 52
 37 53
 37 59
 37 60
 37 63
 37 65
 37 67
 37 71
 37 72
 37 73
 37 76
 37 77
 37 78
 37 79
 37 80
 37 82
 37 86
 37 89
 37 90
 37 95
 37 99
 38 40
 38 42
 38 43
 38 46
 38 48
 38 49
 38 50
 38 55
 38 58
 38 61
 38 64
 38 65
 38 66
 38 67
 38 68
 38 69
 38 70
 38 71
 38 74
 38 75
 38 77
 38 78
 38 79
 38 81
 38 85
 38 86
 38 88
 38 91
 38 93
 38 94
 38 95
 38 98
 39 41
 39 42
 39 43
 39 46
 39 49
 39 52
 39 53
 39 55
 39 57
 39 60
 39 61
 39 62
 39 63
 39 64
 39 66
 39 67
 39 68
 39 69
 39 74
 39 75
 39 77
 39 78
 39 79
 39 81
 39 83
 39 84
 39 85
 39 92
 39 93
 39 94
 39 96
 39 99
 40 42
 40 43
 40 44
 40 46
 40 48
 40 49
 40 52
 40 55
 40 56
 40 57
 40 58
 40 62
 40 67
 40 68
 40 70
 40 72
 40 73
 40 74
 40 75
 40 77
 40 78
 40 82
 40 84
 40 88
 40 89
 40 94
 40 96
 40 97
 40 98
 40 99
 41 43
 41 44
 41 46
 41 49
 41 50
 41 55
 41 57
 41 62
 41 63
 41 66
 41 69
 41 71
 41 73
 41 74
 41 75
 41 76
 41 80
 41 81
 41 84
 41 85
 41 86
 41 88
 41 89
 41 90
 41 91
 41 93
 41 95
 41 97
 41 98
 41 99
 42 43
 42 46
 42 48
 42 50
 42 53
 42 55
 42 57
 42 62
 42 65
 42 66
 42 69
 42 70
 42 72
 42 73
 42 76
 42 77
 42 81
 42 83
 42 84
 42 88
 42 89
 42 91
 42 92
 42 94
 42 95
 42 98
 42 99
 43 45
 43 46
 43 47
 43 50
 43 51
 43 56
 43 58
 43 62
 43 64
 43 65
 43 66
 43 67
 43 69
 43 72
 43 77
 43 80
 43 82
 43 83
 43 84
 43 86
 43 87
 43 88
 43 91
 43 94
 43 95
 43 96
 43 97
 43 99
 44 45
 44 46
 44 50
 44 52
 44 54
 44 56
 44 57
 44 58
 44 59
 44 61
 44 62
 44 63
 44 64
 44 65
 44 67
 44 69
 44 73
 44 74
 44 78
 44 80
 44 81
 44 82
 44 84
 44 89
 44 94
 44 95
 45 47
 45 53
 45 56
 45 58
 45 60
 45 61
 45 64
 45 65
 45 66
 45 70
 45 71
 45 73
 45 76
 45 79
 45 81
 45 86
 45 88
 45 89
 45 92
 45 96
 45 97
 45 99
 46 47
 46 49
 46 50
 46 51
 46 56
 46 59
 46 60
 46 61
 46 62
 46 63
 46 66
 46 68
 46 70
 46 71
 46 72
 46 73
 46 74
 46 76
 46 78
 46 81
 46 82
 46 83
 46 84
 46 86
 46 87
 46 89
 46 92
 46 93
 46 94
 47 52
 47 59
 47 61
 47 63
 47 64
 47 65
 47 67
 47 68
 47 74
 47 76
 47 80
 47 82
 47 84
 47 85
 47 86
 47 87
 47 89
 47 90
 47 91
 47 92
 47 99
 48 51
 48 53
 48 55
 48 59
 48 60
 48 62
 48 65
 48 66
 48 69
 48 70
 48 71
 48 72
 48 79
 48 80
 48 82
 48 84
 48 85
 48 87
 48 88
 48 89
 48 90
 48 95
 48 99
 49 53
 49 54
 49 55
 49 56
 49 57
 49 59
 49 60
 49 65
 49 67
 49 68
 49 69
 49 72
 49 73
 49 76
 49 78
 49 79
 49 80
 49 81
 49 83
 49 85
 49 86
 49 87
 49 89
 49 90
 49 91
 49 92
 49 93
 49 94
 49 95
 49 97
 50 51
 50 58
 50 59
 50 62
 50 67
 50 68
 50 69
 50 70
 50 74
 50 81
 50 82
 50 83
 50 86
 50 87
 50 88
 50 89
 50 91
 50 92
 50 94
 50 95
 50 96
 50 97
 51 52
 51 54
 51 55
 51 56
 51 57
 51 59
 51 60
 51 61
 51 62
 51 63
 51 68
 51 70
 51 73
 51 81
 51 84
 51 85
 51 87
 51 89
 51 90
 51 92
 51 93
 51 96
 51 98
 52 55
 52 56
 52 57
 52 58
 52 59
 52 60
 52 61
 52 63
 52 65
 52 66
 52 69
 52 70
 52 73
 52 74
 52 80
 52 83
 52 84
 52 87
 52 91
 52 94
 52 95
 52 99
 53 54
 53 55
 53 57
 53 58
 53 61
 53 62
 53 63
 53 64
 53 65
 53 66
 53 68
 53 71
 53 78
 53 80
 53 81
 53 84
 53 89
 53 90
 53 94
 53 99
 54 59
 54 61
 54 63
 54 66
 54 67
 54 69
 54 75
 54 76
 54 79
 54 80
 54 87
 54 90
 54 91
 54 92
 54 94
 54 95
 54 96
 54 97
 54 98
 55 62
 55 63
 55 67
 55 68
 55 69
 55 74
 55 75
 55 76
 55 77
 55 78
 55 79
 55 80
 55 82
 55 83
 55 84
 55 85
 55 90
 55 95
 55 97
 55 98
 55 99
 56 60
 56 64
 56 66
 56 67
 56 72
 56 73
 56 75
 56 79
 56 80
 56 81
 56 83
 56 84
 56 85
 56 86
 56 89
 56 90
 56 91
 56 93
 56 95
 56 97
 56 99
 57 58
 57 59
 57 60
 57 64
 57 65
 57 68
 57 71
 57 72
 57 75
 57 78
 57 81
 57 82
 57 84
 57 85
 57 87
 57 90
 57 94
 57 96
 57 97
 58 61
 58 63
 58 64
 58 65
 58 66
 58 67
 58 69
 58 70
 58 71
 58 72
 58 75
 58 78
 58 79
 58 81
 58 84
 58 87
 58 89
 58 91
 58 92
 58 93
 58 94
 58 95
 58 96
 58 97
 59 60
 59 61
 59 65
 59 66
 59 67
 59 68
 59 69
 59 70
 59 74
 59 76
 59 79
 59 82
 59 84
 59 86
 59 87
 59 88
 59 92
 59 93
 59 94
 59 95
 59 96
 59 98
 60 62
 60 64
 60 69
 60 70
 60 74
 60 75
 60 76
 60 77
 60 78
 60 80
 60 82
 60 87
 60 88
 60 89
 60 90
 60 91
 60 92
 60 93
 60 96
 60 97
 60 98
 61 63
 61 64
 61 67
 61 69
 61 71
 61 72
 61 77
 61 80
 61 83
 61 85
 61 88
 61 89
 61 90
 61 94
 61 95
 61 96
 62 63
 62 64
 62 66
 62 67
 62 68
 62 69
 62 76
 62 77
 62 78
 62 79
 62 80
 62 82
 62 83
 62 84
 62 87
 62 88
 62 89
 62 91
 62 93
 62 96
 62 99
 63 67
 63 68
 63 71
 63 72
 63 74
 63 75
 63 77
 63 78
 63 79
 63 80
 63 83
 63 85
 63 86
 63 87
 63 91
 63 92
 63 95
 63 96
 63 97
 64 70
 64 71
 64 72
 64 73
 64 75
 64 77
 64 79
 64 83
 64 84
 64 85
 64 86
 64 88
 64 89
 64 91
 64 92
 64 94
 64 95
 64 96
 65 70
 65 71
 65 73
 65 74
 65 80
 65 83
 65 84
 65 85
 65 86
 65 88
 65 89
 65 92
 65 93
 65 95
 65 98
 65 99
 66 67
 66 69
 66 70
 66 72
 66 74
 66 76
 66 79
 66 80
 66 81
 66 82
 66 83
 66 84
 66 86
 66 87
 66 90
 66 93
 66 95
 66 96
 66 99
 67 71
 67 73
 67 74
 67 75
 67 77
 67 78
 67 79
 67 80
 67 81
 67 84
 67 87
 67 88
 67 91
 67 92
 67 93
 67 95
 67 98
 67 99
 68 70
 68 72
 68 79
 68 80
 68 82
 68 83
 68 87
 68 88
 68 89
 68 90
 68 91
 68 95
 68 96
 68 98
 68 99
 69 73
 69 75
 69 76
 69 77
 69 78
 69 79
 69 80
 69 81
 69 83
 69 86
 69 87
 69 88
 69 89
 69 90
 69 91
 69 95
 70 72
 70 77
 70 78
 70 80
 70 85
 70 86
 70 87
 70 89
 70 91
 70 92
 70 93
 70 94
 70 96
 70 97
 70 98
 70 99
 71 72
 71 74
 71 75
 71 78
 71 80
 71 81
 71 82
 71 83
 71 84
 71 86
 71 87
 71 89
 71 90
 71 91
 71 95
 71 97
 72 73
 72 74
 72 78
 72 79
 72 83
 72 86
 72 89
 72 90
 72 93
 72 94
 72 95
 72 99
 73 74
 73 75
 73 77
 73 79
 73 84
 73 87
 73 89
 73 91
 73 93
 73 94
 73 98
 74 75
 74 76
 74 77
 74 79
 74 80
 74 81
 74 82
 74 84
 74 85
 74 86
 74 87
 74 89
 74 92
 74 93
 74 94
 74 96
 75 76
 75 77
 75 89
 75 90
 75 91
 75 92
 75 94
 75 95
 75 96
 75 97
 75 98
 76 78
 76 79
 76 86
 76 89
 76 91
 76 93
 76 95
 76 96
 77 78
 77 79
 77 80
 77 81
 77 83
 77 84
 77 88
 77 91
 77 93
 77 94
 77 95
 77 99
 78 79
 78 81
 78 86
 78 87
 78 88
 78 90
 78 92
 78 95
 78 96
 78 99
 79 80
 79 85
 79 89
 79 94
 79 95
 79 97
 79 99
 80 81
 80 82
 80 85
 80 86
 80 87
 80 90
 80 96
 80 97
 80 99
 81 83
 81 87
 81 89
 81 90
 81 93
 81 95
 81 96
 81 97
 81 98
 81 99
 82 83
 82 85
 82 88
 82 89
 82 90
 82 91
 82 95
 82 96
 82 99
 83 84
 83 85
 83 86
 83 89
 83 91
 83 92
 83 93
 83 94
 83 98
 83 99
 84 85
 84 86
 84 87
 84 91
 84 92
 84 93
 84 96
 84 98
 84 99
 85 86
 85 89
 85 94
 85 97
 85 98
 86 91
 86 92
 86 94
 86 97
 86 98
 87 89
 87 90
 87 91
 87 94
 87 95
 87 96
 87 98
 88 89
 88 90
 88 92
 88 94
 88 97
 89 90
 89 92
 89 95
 89 98
 90 91
 90 92
 90 94
 91 92
 91 93
 91 94
 91 96
 91 97
 91 98
 91 99
 92 93
 92 95
 92 97
 93 94
 93 95
 93 98
 93 99
 94 95
 94 97
 94 99
 95 96
 95 97
 95 98
 95 99
 96 97
 98 99